(set-logic ALL_SUPPORTED)
(set-option :produce-models true)
(declare-fun SetToCheckUA () (Set (Tuple Int Int)))
(assert (= SetToCheckUA (insert (mkTuple 26 26) 
(mkTuple 33 33) 
(mkTuple 18 18) 
(mkTuple 48 48) 
(mkTuple 11 11) 
(mkTuple 25 25) 
(mkTuple 17 17) 
(mkTuple 47 47) 
(mkTuple 10 10) 
(mkTuple 40 40) 
(mkTuple 24 24) 
(mkTuple 39 39) 
(mkTuple 43 43) 
(mkTuple 50 50) 
(mkTuple 46 46) 
(mkTuple 12 12) 
(mkTuple 27 27) 
(mkTuple 31 31) 
(mkTuple 34 34) 
(mkTuple 53 53) 
(mkTuple 49 49) 
(mkTuple 37 37) 
(mkTuple 30 30) 
(mkTuple 15 15) 
(mkTuple 2 2) 
(mkTuple 29 29) 
(mkTuple 3 3) 
(mkTuple 22 22) 
(mkTuple 52 52) 
(mkTuple 1 1) 
(mkTuple 44 44) 
(mkTuple 21 21) 
(mkTuple 51 51) 
(mkTuple 13 13) 
(mkTuple 32 32) 
(mkTuple 28 28) 
(mkTuple 20 20) 
(mkTuple 16 16) 
(mkTuple 35 35) 
(mkTuple 5 5) 
(mkTuple 38 38) 
(mkTuple 42 42) 
(mkTuple 4 4) 
(mkTuple 7 7) 
(mkTuple 6 6) 
(mkTuple 45 45) 
(mkTuple 8 8) 
(mkTuple 9 9) 
(mkTuple 23 23) 
(singleton (mkTuple 19 19)))))
(declare-fun SetToCheckAT () (Set (Tuple Int Int)))
(assert (= SetToCheckAT (insert (mkTuple 41 41) 
(singleton (mkTuple 14 14)))))
(declare-fun GRAPH0 () (Set (Tuple Int Int)))
(assert (= GRAPH0 (insert (mkTuple 35 42) 
(mkTuple 13 24) 
(mkTuple 11 51) 
(mkTuple 13 36) 
(mkTuple 29 15) 
(mkTuple 29 27) 
(mkTuple 52 46) 
(mkTuple 22 16) 
(mkTuple 43 42) 
(mkTuple 13 12) 
(mkTuple 46 19) 
(mkTuple 52 22) 
(mkTuple 38 19) 
(mkTuple 18 7) 
(mkTuple 44 46) 
(mkTuple 42 7) 
(mkTuple 44 22) 
(mkTuple 51 53) 
(mkTuple 30 17) 
(mkTuple 5 36) 
(mkTuple 12 31) 
(mkTuple 27 42) 
(mkTuple 27 30) 
(mkTuple 12 43) 
(mkTuple 35 53) 
(mkTuple 11 52) 
(mkTuple 13 35) 
(mkTuple 13 47) 
(mkTuple 43 43) 
(mkTuple 30 15) 
(mkTuple 3 51) 
(mkTuple 50 50) 
(mkTuple 52 45) 
(mkTuple 22 17) 
(mkTuple 46 18) 
(mkTuple 44 47) 
(mkTuple 53 49) 
(mkTuple 51 42) 
(mkTuple 53 7) 
(mkTuple 53 25) 
(mkTuple 30 16) 
(mkTuple 45 15) 
(mkTuple 27 31) 
(mkTuple 12 44) 
(mkTuple 12 32) 
(mkTuple 27 43) 
(mkTuple 13 46) 
(mkTuple 31 7) 
(mkTuple 29 25) 
(mkTuple 43 44) 
(mkTuple 35 52) 
(mkTuple 29 49) 
(mkTuple 53 17) 
(mkTuple 52 24) 
(mkTuple 3 52) 
(mkTuple 22 18) 
(mkTuple 52 36) 
(mkTuple 13 22) 
(mkTuple 13 34) 
(mkTuple 14 14) 
(mkTuple 44 24) 
(mkTuple 44 36) 
(mkTuple 52 49) 
(mkTuple 30 19) 
(mkTuple 51 43) 
(mkTuple 53 16) 
(mkTuple 21 21) 
(mkTuple 12 53) 
(mkTuple 45 16) 
(mkTuple 27 52) 
(mkTuple 29 24) 
(mkTuple 29 36) 
(mkTuple 43 45) 
(mkTuple 35 51) 
(mkTuple 3 53) 
(mkTuple 52 47) 
(mkTuple 13 33) 
(mkTuple 13 45) 
(mkTuple 4 4) 
(mkTuple 44 49) 
(mkTuple 44 25) 
(mkTuple 3 7) 
(mkTuple 17 7) 
(mkTuple 30 18) 
(mkTuple 53 15) 
(mkTuple 12 42) 
(mkTuple 27 53) 
(mkTuple 12 30) 
(mkTuple 45 17) 
(mkTuple 51 44) 
(mkTuple 11 43) 
(mkTuple 13 16) 
(mkTuple 11 31) 
(mkTuple 30 36) 
(mkTuple 53 19) 
(mkTuple 30 24) 
(mkTuple 29 19) 
(mkTuple 46 15) 
(mkTuple 6 36) 
(mkTuple 10 3) 
(mkTuple 31 17) 
(mkTuple 12 35) 
(mkTuple 31 16) 
(mkTuple 12 47) 
(mkTuple 45 22) 
(mkTuple 27 46) 
(mkTuple 27 34) 
(mkTuple 45 46) 
(mkTuple 47 19) 
(mkTuple 52 7) 
(mkTuple 30 49) 
(mkTuple 27 22) 
(mkTuple 51 45) 
(mkTuple 11 32) 
(mkTuple 13 15) 
(mkTuple 13 27) 
(mkTuple 30 47) 
(mkTuple 13 39) 
(mkTuple 30 35) 
(mkTuple 53 18) 
(mkTuple 29 18) 
(mkTuple 52 25) 
(mkTuple 11 44) 
(mkTuple 12 24) 
(mkTuple 12 12) 
(mkTuple 12 36) 
(mkTuple 31 15) 
(mkTuple 19 7) 
(mkTuple 27 35) 
(mkTuple 47 18) 
(mkTuple 45 47) 
(mkTuple 27 47) 
(mkTuple 51 46) 
(mkTuple 51 22) 
(mkTuple 11 53) 
(mkTuple 13 38) 
(mkTuple 29 17) 
(mkTuple 29 29) 
(mkTuple 3 3) 
(mkTuple 8 19) 
(mkTuple 29 7) 
(mkTuple 46 17) 
(mkTuple 31 19) 
(mkTuple 12 45) 
(mkTuple 10 52) 
(mkTuple 52 17) 
(mkTuple 44 44) 
(mkTuple 45 24) 
(mkTuple 45 36) 
(mkTuple 51 47) 
(mkTuple 12 33) 
(mkTuple 27 44) 
(mkTuple 27 32) 
(mkTuple 11 42) 
(mkTuple 13 49) 
(mkTuple 11 30) 
(mkTuple 51 49) 
(mkTuple 13 13) 
(mkTuple 13 25) 
(mkTuple 30 25) 
(mkTuple 30 7) 
(mkTuple 29 16) 
(mkTuple 46 16) 
(mkTuple 28 36) 
(mkTuple 52 15) 
(mkTuple 31 18) 
(mkTuple 10 51) 
(mkTuple 12 46) 
(mkTuple 12 34) 
(mkTuple 52 16) 
(mkTuple 27 45) 
(mkTuple 45 25) 
(mkTuple 45 49) 
(mkTuple 51 36) 
(mkTuple 51 24) 
(mkTuple 12 22) 
(mkTuple 27 33) 
(mkTuple 41 41) 
(mkTuple 29 43) 
(mkTuple 24 17) 
(mkTuple 33 53) 
(mkTuple 13 52) 
(mkTuple 27 7) 
(mkTuple 39 16) 
(mkTuple 8 17) 
(mkTuple 8 29) 
(mkTuple 44 19) 
(mkTuple 42 45) 
(mkTuple 44 18) 
(mkTuple 52 19) 
(mkTuple 34 45) 
(mkTuple 23 36) 
(mkTuple 38 47) 
(mkTuple 51 25) 
(mkTuple 29 31) 
(mkTuple 38 35) 
(mkTuple 43 15) 
(mkTuple 24 16) 
(mkTuple 51 15) 
(mkTuple 39 39) 
(mkTuple 15 7) 
(mkTuple 33 42) 
(mkTuple 13 51) 
(mkTuple 39 15) 
(mkTuple 39 27) 
(mkTuple 35 25) 
(mkTuple 8 18) 
(mkTuple 35 49) 
(mkTuple 42 44) 
(mkTuple 28 50) 
(mkTuple 34 22) 
(mkTuple 52 18) 
(mkTuple 34 46) 
(mkTuple 34 34) 
(mkTuple 38 36) 
(mkTuple 29 42) 
(mkTuple 29 30) 
(mkTuple 38 24) 
(mkTuple 43 16) 
(mkTuple 51 16) 
(mkTuple 9 19) 
(mkTuple 33 51) 
(mkTuple 39 18) 
(mkTuple 15 15) 
(mkTuple 24 19) 
(mkTuple 2 2) 
(mkTuple 22 22) 
(mkTuple 8 39) 
(mkTuple 35 36) 
(mkTuple 35 24) 
(mkTuple 8 15) 
(mkTuple 8 27) 
(mkTuple 50 36) 
(mkTuple 38 49) 
(mkTuple 34 43) 
(mkTuple 39 7) 
(mkTuple 38 25) 
(mkTuple 29 53) 
(mkTuple 51 17) 
(mkTuple 43 17) 
(mkTuple 33 52) 
(mkTuple 39 17) 
(mkTuple 24 18) 
(mkTuple 39 29) 
(mkTuple 15 16) 
(mkTuple 35 47) 
(mkTuple 35 35) 
(mkTuple 20 36) 
(mkTuple 8 16) 
(mkTuple 38 38) 
(mkTuple 42 42) 
(mkTuple 34 44) 
(mkTuple 51 7) 
(mkTuple 7 36) 
(mkTuple 43 18) 
(mkTuple 29 52) 
(mkTuple 51 18) 
(mkTuple 9 17) 
(mkTuple 9 29) 
(mkTuple 29 35) 
(mkTuple 35 34) 
(mkTuple 35 22) 
(mkTuple 29 47) 
(mkTuple 43 22) 
(mkTuple 43 46) 
(mkTuple 13 44) 
(mkTuple 35 46) 
(mkTuple 8 49) 
(mkTuple 13 32) 
(mkTuple 22 36) 
(mkTuple 8 24) 
(mkTuple 8 36) 
(mkTuple 38 27) 
(mkTuple 8 12) 
(mkTuple 14 36) 
(mkTuple 42 49) 
(mkTuple 34 53) 
(mkTuple 42 25) 
(mkTuple 17 17) 
(mkTuple 12 51) 
(mkTuple 38 15) 
(mkTuple 40 40) 
(mkTuple 45 18) 
(mkTuple 29 22) 
(mkTuple 43 47) 
(mkTuple 9 18) 
(mkTuple 27 51) 
(mkTuple 29 46) 
(mkTuple 35 45) 
(mkTuple 29 34) 
(mkTuple 39 19) 
(mkTuple 51 19) 
(mkTuple 13 31) 
(mkTuple 8 38) 
(mkTuple 13 43) 
(mkTuple 37 36) 
(mkTuple 8 13) 
(mkTuple 8 25) 
(mkTuple 38 16) 
(mkTuple 44 15) 
(mkTuple 34 42) 
(mkTuple 42 24) 
(mkTuple 42 36) 
(mkTuple 17 18) 
(mkTuple 12 52) 
(mkTuple 45 19) 
(mkTuple 37 37) 
(mkTuple 9 27) 
(mkTuple 29 33) 
(mkTuple 43 36) 
(mkTuple 9 39) 
(mkTuple 29 45) 
(mkTuple 35 44) 
(mkTuple 43 24) 
(mkTuple 13 30) 
(mkTuple 13 42) 
(mkTuple 1 1) 
(mkTuple 8 46) 
(mkTuple 34 51) 
(mkTuple 38 29) 
(mkTuple 8 22) 
(mkTuple 8 34) 
(mkTuple 38 17) 
(mkTuple 44 16) 
(mkTuple 8 10) 
(mkTuple 16 7) 
(mkTuple 42 47) 
(mkTuple 36 36) 
(mkTuple 9 16) 
(mkTuple 29 44) 
(mkTuple 35 43) 
(mkTuple 43 25) 
(mkTuple 29 32) 
(mkTuple 43 49) 
(mkTuple 20 20) 
(mkTuple 16 16) 
(mkTuple 22 15) 
(mkTuple 15 36) 
(mkTuple 49 7) 
(mkTuple 13 53) 
(mkTuple 8 35) 
(mkTuple 38 18) 
(mkTuple 42 22) 
(mkTuple 44 17) 
(mkTuple 8 47) 
(mkTuple 8 11) 
(mkTuple 42 46) 
(mkTuple 34 52) 
(mkTuple 38 7) 
(mkTuple 9 9) 
(mkTuple 21 36) 
(mkTuple 9 15) 
(mkTuple 9 49) 
(mkTuple 48 36) 
(mkTuple 32 45) 
(mkTuple 38 51) 
(mkTuple 33 25) 
(mkTuple 42 18) 
(mkTuple 18 18) 
(mkTuple 33 49) 
(mkTuple 39 32) 
(mkTuple 48 48) 
(mkTuple 39 44) 
(mkTuple 25 25) 
(mkTuple 8 44) 
(mkTuple 8 32) 
(mkTuple 9 8) 
(mkTuple 31 52) 
(mkTuple 10 38) 
(mkTuple 3 19) 
(mkTuple 9 12) 
(mkTuple 9 24) 
(mkTuple 9 36) 
(mkTuple 34 17) 
(mkTuple 49 16) 
(mkTuple 9 38) 
(mkTuple 32 46) 
(mkTuple 32 34) 
(mkTuple 32 22) 
(mkTuple 41 36) 
(mkTuple 42 17) 
(mkTuple 39 31) 
(mkTuple 39 43) 
(mkTuple 25 36) 
(mkTuple 8 33) 
(mkTuple 8 45) 
(mkTuple 47 7) 
(mkTuple 42 16) 
(mkTuple 9 7) 
(mkTuple 10 25) 
(mkTuple 38 52) 
(mkTuple 10 49) 
(mkTuple 31 51) 
(mkTuple 9 13) 
(mkTuple 34 18) 
(mkTuple 9 25) 
(mkTuple 10 13) 
(mkTuple 49 17) 
(mkTuple 10 29) 
(mkTuple 12 7) 
(mkTuple 2 36) 
(mkTuple 32 43) 
(mkTuple 11 29) 
(mkTuple 39 46) 
(mkTuple 11 17) 
(mkTuple 33 47) 
(mkTuple 33 35) 
(mkTuple 39 22) 
(mkTuple 39 34) 
(mkTuple 25 15) 
(mkTuple 8 42) 
(mkTuple 17 15) 
(mkTuple 25 7) 
(mkTuple 42 15) 
(mkTuple 31 42) 
(mkTuple 8 30) 
(mkTuple 34 15) 
(mkTuple 9 10) 
(mkTuple 31 30) 
(mkTuple 9 22) 
(mkTuple 10 16) 
(mkTuple 38 53) 
(mkTuple 9 34) 
(mkTuple 9 46) 
(mkTuple 13 3) 
(mkTuple 16 36) 
(mkTuple 32 44) 
(mkTuple 32 32) 
(mkTuple 11 18) 
(mkTuple 33 36) 
(mkTuple 33 24) 
(mkTuple 35 19) 
(mkTuple 24 22) 
(mkTuple 39 33) 
(mkTuple 39 45) 
(mkTuple 49 15) 
(mkTuple 8 31) 
(mkTuple 8 43) 
(mkTuple 17 16) 
(mkTuple 31 53) 
(mkTuple 11 19) 
(mkTuple 10 15) 
(mkTuple 8 8) 
(mkTuple 10 39) 
(mkTuple 38 30) 
(mkTuple 9 11) 
(mkTuple 10 27) 
(mkTuple 38 42) 
(mkTuple 9 35) 
(mkTuple 9 47) 
(mkTuple 34 16) 
(mkTuple 24 25) 
(mkTuple 10 19) 
(mkTuple 32 53) 
(mkTuple 33 45) 
(mkTuple 35 18) 
(mkTuple 39 24) 
(mkTuple 33 33) 
(mkTuple 39 36) 
(mkTuple 3 15) 
(mkTuple 46 7) 
(mkTuple 19 18) 
(mkTuple 49 36) 
(mkTuple 3 39) 
(mkTuple 25 17) 
(mkTuple 49 24) 
(mkTuple 3 27) 
(mkTuple 8 7) 
(mkTuple 8 52) 
(mkTuple 38 43) 
(mkTuple 34 25) 
(mkTuple 40 36) 
(mkTuple 9 32) 
(mkTuple 9 44) 
(mkTuple 38 31) 
(mkTuple 29 51) 
(mkTuple 43 19) 
(mkTuple 34 49) 
(mkTuple 24 24) 
(mkTuple 24 36) 
(mkTuple 10 18) 
(mkTuple 32 42) 
(mkTuple 33 34) 
(mkTuple 39 35) 
(mkTuple 33 22) 
(mkTuple 35 17) 
(mkTuple 39 47) 
(mkTuple 33 46) 
(mkTuple 19 17) 
(mkTuple 49 25) 
(mkTuple 3 16) 
(mkTuple 25 16) 
(mkTuple 8 53) 
(mkTuple 9 3) 
(mkTuple 38 32) 
(mkTuple 38 44) 
(mkTuple 10 17) 
(mkTuple 9 33) 
(mkTuple 9 45) 
(mkTuple 49 49) 
(mkTuple 35 7) 
(mkTuple 18 16) 
(mkTuple 24 15) 
(mkTuple 33 43) 
(mkTuple 32 51) 
(mkTuple 39 38) 
(mkTuple 35 16) 
(mkTuple 53 52) 
(mkTuple 3 17) 
(mkTuple 25 19) 
(mkTuple 49 22) 
(mkTuple 1 36) 
(mkTuple 9 30) 
(mkTuple 9 42) 
(mkTuple 34 47) 
(mkTuple 38 33) 
(mkTuple 3 29) 
(mkTuple 38 45) 
(mkTuple 18 15) 
(mkTuple 13 7) 
(mkTuple 33 32) 
(mkTuple 42 19) 
(mkTuple 32 52) 
(mkTuple 33 44) 
(mkTuple 39 25) 
(mkTuple 39 49) 
(mkTuple 35 15) 
(mkTuple 7 7) 
(mkTuple 25 18) 
(mkTuple 8 51) 
(mkTuple 48 2) 
(mkTuple 17 36) 
(mkTuple 24 7) 
(mkTuple 9 31) 
(mkTuple 34 36) 
(mkTuple 38 22) 
(mkTuple 9 43) 
(mkTuple 34 24) 
(mkTuple 3 18) 
(mkTuple 23 23) 
(mkTuple 19 19) 
(mkTuple 38 34) 
(mkTuple 38 46) 
(mkTuple 10 7) 
(mkTuple 30 44) 
(mkTuple 32 17) 
(mkTuple 30 32) 
(mkTuple 33 7) 
(mkTuple 11 47) 
(mkTuple 11 35) 
(mkTuple 11 11) 
(mkTuple 31 36) 
(mkTuple 3 47) 
(mkTuple 8 3) 
(mkTuple 31 24) 
(mkTuple 10 42) 
(mkTuple 12 15) 
(mkTuple 10 30) 
(mkTuple 12 39) 
(mkTuple 12 27) 
(mkTuple 3 35) 
(mkTuple 9 52) 
(mkTuple 47 15) 
(mkTuple 32 18) 
(mkTuple 53 42) 
(mkTuple 30 43) 
(mkTuple 46 22) 
(mkTuple 13 19) 
(mkTuple 46 46) 
(mkTuple 11 36) 
(mkTuple 11 24) 
(mkTuple 11 3) 
(mkTuple 11 12) 
(mkTuple 22 7) 
(mkTuple 31 47) 
(mkTuple 3 36) 
(mkTuple 31 35) 
(mkTuple 10 53) 
(mkTuple 27 27) 
(mkTuple 12 16) 
(mkTuple 3 24) 
(mkTuple 9 53) 
(mkTuple 27 15) 
(mkTuple 32 19) 
(mkTuple 53 53) 
(mkTuple 18 36) 
(mkTuple 30 22) 
(mkTuple 32 15) 
(mkTuple 13 18) 
(mkTuple 30 46) 
(mkTuple 30 34) 
(mkTuple 46 49) 
(mkTuple 46 25) 
(mkTuple 52 52) 
(mkTuple 11 45) 
(mkTuple 11 33) 
(mkTuple 3 25) 
(mkTuple 3 49) 
(mkTuple 12 25) 
(mkTuple 19 16) 
(mkTuple 12 49) 
(mkTuple 45 44) 
(mkTuple 27 24) 
(mkTuple 27 36) 
(mkTuple 10 44) 
(mkTuple 10 32) 
(mkTuple 53 44) 
(mkTuple 47 17) 
(mkTuple 11 10) 
(mkTuple 30 33) 
(mkTuple 34 7) 
(mkTuple 32 16) 
(mkTuple 13 17) 
(mkTuple 13 29) 
(mkTuple 28 28) 
(mkTuple 30 45) 
(mkTuple 46 24) 
(mkTuple 46 36) 
(mkTuple 11 46) 
(mkTuple 11 34) 
(mkTuple 11 22) 
(mkTuple 31 25) 
(mkTuple 45 7) 
(mkTuple 10 31) 
(mkTuple 19 15) 
(mkTuple 31 49) 
(mkTuple 3 38) 
(mkTuple 12 38) 
(mkTuple 27 49) 
(mkTuple 6 6) 
(mkTuple 9 51) 
(mkTuple 45 45) 
(mkTuple 27 25) 
(mkTuple 10 43) 
(mkTuple 47 16) 
(mkTuple 53 43) 
(mkTuple 32 49) 
(mkTuple 26 26) 
(mkTuple 30 52) 
(mkTuple 32 25) 
(mkTuple 11 39) 
(mkTuple 3 42) 
(mkTuple 11 27) 
(mkTuple 3 30) 
(mkTuple 11 15) 
(mkTuple 52 42) 
(mkTuple 33 17) 
(mkTuple 39 52) 
(mkTuple 31 32) 
(mkTuple 3 43) 
(mkTuple 12 19) 
(mkTuple 19 22) 
(mkTuple 27 18) 
(mkTuple 31 44) 
(mkTuple 53 46) 
(mkTuple 47 47) 
(mkTuple 10 22) 
(mkTuple 10 10) 
(mkTuple 53 22) 
(mkTuple 10 46) 
(mkTuple 10 34) 
(mkTuple 11 7) 
(mkTuple 4 36) 
(mkTuple 32 7) 
(mkTuple 3 31) 
(mkTuple 11 16) 
(mkTuple 30 51) 
(mkTuple 33 18) 
(mkTuple 33 19) 
(mkTuple 47 22) 
(mkTuple 39 51) 
(mkTuple 47 46) 
(mkTuple 3 44) 
(mkTuple 31 43) 
(mkTuple 43 7) 
(mkTuple 31 31) 
(mkTuple 3 32) 
(mkTuple 27 19) 
(mkTuple 10 33) 
(mkTuple 53 45) 
(mkTuple 10 45) 
(mkTuple 12 3) 
(mkTuple 30 42) 
(mkTuple 30 30) 
(mkTuple 32 47) 
(mkTuple 32 35) 
(mkTuple 11 49) 
(mkTuple 11 25) 
(mkTuple 26 36) 
(mkTuple 39 42) 
(mkTuple 11 13) 
(mkTuple 33 15) 
(mkTuple 52 44) 
(mkTuple 31 46) 
(mkTuple 39 30) 
(mkTuple 3 33) 
(mkTuple 12 17) 
(mkTuple 19 36) 
(mkTuple 27 16) 
(mkTuple 44 7) 
(mkTuple 31 34) 
(mkTuple 3 45) 
(mkTuple 12 29) 
(mkTuple 31 22) 
(mkTuple 10 36) 
(mkTuple 53 36) 
(mkTuple 51 51) 
(mkTuple 53 24) 
(mkTuple 34 19) 
(mkTuple 47 25) 
(mkTuple 49 18) 
(mkTuple 10 24) 
(mkTuple 47 49) 
(mkTuple 10 12) 
(mkTuple 30 53) 
(mkTuple 32 36) 
(mkTuple 32 24) 
(mkTuple 11 38) 
(mkTuple 33 16) 
(mkTuple 39 53) 
(mkTuple 52 43) 
(mkTuple 5 5) 
(mkTuple 47 24) 
(mkTuple 3 22) 
(mkTuple 27 17) 
(mkTuple 3 46) 
(mkTuple 31 45) 
(mkTuple 3 34) 
(mkTuple 12 18) 
(mkTuple 31 33) 
(mkTuple 10 47) 
(mkTuple 51 52) 
(mkTuple 53 47) 
(mkTuple 25 22) 
(mkTuple 47 36) 
(mkTuple 49 19) 
(singleton (mkTuple 10 35)))))
(declare-fun Associations (Int) (Set (Tuple Int Int Int)))

(assert (= (Associations 0) (insert(mkTuple 2 55 14) 
(singleton (mkTuple 50 67 14)))))

(declare-fun AssociationsForUA (Int) (Set (Tuple Int Int Int)))
(declare-fun UA_U_Reachability (Int) (Set (Tuple Int Int)))
(declare-fun AT_Reachability (Int) (Set (Tuple Int Int)))
(declare-fun AccessRights(Int) (Set (Tuple Int Int Int)))

(assert (= (UA_U_Reachability 0) (join SetToCheckUA GRAPH0)))
(assert (= (AT_Reachability 0) (join SetToCheckAT GRAPH0)))
(assert (= (AssociationsForUA 0) (join (UA_U_Reachability 0) (Associations 0))))
(assert (= (AccessRights 0) (join (AssociationsForUA 0) (transpose (AT_Reachability 0)))))

(declare-fun obligation1 (Int) Int)
(declare-fun obligation2 (Int) Int)
(declare-fun obligation3 (Int) Int)
(declare-fun obligation4 (Int) Int)
(declare-fun obligation5 (Int) Int)
(declare-fun obligation6 (Int) Int)
(declare-fun obligation7 (Int) Int)
(declare-fun obligation8 (Int) Int)
(declare-fun obligation9 (Int) Int)
(declare-fun obligation10 (Int) Int)
(declare-fun obligation11 (Int) Int)
(declare-fun obligation12 (Int) Int)
(declare-fun obligation13 (Int) Int)
;--------------------------------------------------------------------------------------------------------------------
;STEP1
(assert 
(xor 
(= (obligation1 0) 0) 
(and (member (mkTuple 50 67 14) (AccessRights 0)) (= (obligation1 0) 1))
)
)				
(assert 
(xor 
(= (obligation2 0) 0) 
(and (member (mkTuple 20 66 14) (AccessRights 0)) (= (obligation2 0) 1))
)
)				
(assert 
(xor 
(= (obligation3 0) 0) 
(and (member (mkTuple 26 66 14) (AccessRights 0)) (= (obligation3 0) 1))
)
)				
(assert 
(xor 
(= (obligation4 0) 0) 
(and (member (mkTuple 5 66 14) (AccessRights 0)) (= (obligation4 0) 1))
)
)				
(assert 
(xor 
(= (obligation5 0) 0) 
(and (member (mkTuple 6 67 14) (AccessRights 0)) (= (obligation5 0) 1))
)
)				
(assert 
(xor 
(= (obligation6 0) 0) 
(and (member (mkTuple 7 68 14) (AccessRights 0)) (= (obligation6 0) 1))
)
)				
(assert 
(xor 
(= (obligation7 0) 0) 
(and (member (mkTuple 1 66 14) (AccessRights 0)) (= (obligation7 0) 1))
)
)				
(assert 
(xor 
(= (obligation8 0) 0) 
(and (member (mkTuple 40 66 14) (AccessRights 0)) (= (obligation8 0) 1))
)
)				
(assert 
(xor 
(= (obligation9 0) 0) 
(and (member (mkTuple 4 66 14) (AccessRights 0)) (= (obligation9 0) 1))
)
)				
(assert 
(xor 
(= (obligation10 0) 0) 
(and (member (mkTuple 21 67 14) (AccessRights 0)) (= (obligation10 0) 1))
)
)				
(assert 
(xor 
(= (obligation11 0) 0) 
(and (member (mkTuple 23 68 14) (AccessRights 0)) (= (obligation11 0) 1))
)
)				
(assert 
(xor 
(= (obligation12 0) 0) 
(and (member (mkTuple 23 69 14) (AccessRights 0)) (= (obligation12 0) 1))
)
)				
(assert 
(xor 
(= (obligation13 0) 0) 
(and (member (mkTuple 21 71 14) (AccessRights 0)) (= (obligation13 0) 1))
)
)				


(assert (or 
(and (= (obligation1 0) 1)
(xor (= (Associations 1) 
(setminus (union  (Associations 0) (singleton(mkTuple 20 66 14))) (singleton(mkTuple 50 66 14))))
(= (Associations 1) (Associations 0))))

(and (= (obligation2 0) 1)
(xor (= (Associations 1) 
(setminus (union  (Associations 0) (singleton(mkTuple 26 66 14))) (singleton(mkTuple 20 66 14))))
(= (Associations 1) (Associations 0))))

(and (= (obligation3 0) 1)
(xor (= (Associations 1) 
(setminus (union  (Associations 0) (singleton(mkTuple 5 66 14))) (singleton(mkTuple 26 66 14))))
(= (Associations 1) (Associations 0))))

(and (= (obligation4 0) 1)
(xor (= (Associations 1) 
(setminus (union  (Associations 0) (singleton(mkTuple 6 67 14))) (singleton(mkTuple 5 66 14))))
(= (Associations 1) (Associations 0))))

(and (= (obligation5 0) 1)
(xor (= (Associations 1) 
(setminus (union  (Associations 0) (singleton(mkTuple 7 68 14))) (singleton(mkTuple 6 67 14))))
(= (Associations 1) (Associations 0))))

(and (= (obligation6 0) 1)
(xor (= (Associations 1) 
(setminus (union  (Associations 0) (singleton(mkTuple 1 66 14))) (singleton(mkTuple 7 68 14))))
(= (Associations 1) (Associations 0))))

(and (= (obligation7 0) 1)
(xor (= (Associations 1) 
(setminus (union  (Associations 0) (singleton(mkTuple 40 66 14))) (singleton(mkTuple 1 66 14))))
(= (Associations 1) (Associations 0))))

(and (= (obligation8 0) 1)
(xor (= (Associations 1) 
(setminus (union  (Associations 0) (singleton(mkTuple 4 66 14))) (singleton(mkTuple 40 66 14))))
(= (Associations 1) (Associations 0))))

(and (= (obligation9 0) 1)
(xor (= (Associations 1) 
(setminus (union  (Associations 0) (singleton(mkTuple 21 67 14))) (singleton(mkTuple 4 66 14))))
(= (Associations 1) (Associations 0))))

(and (= (obligation10 0) 1)
(xor (= (Associations 1) 
(setminus (union  (Associations 0) (singleton(mkTuple 23 68 14))) (singleton(mkTuple 21 66 14))))
(= (Associations 1) (Associations 0))))

(and (= (obligation11 0) 1)
(xor (= (Associations 1) 
(setminus (union  (Associations 0) (singleton(mkTuple 23 69 14))) (singleton(mkTuple 23 68 14))))
(= (Associations 1) (Associations 0))))

(and (= (obligation12 0) 1)
(xor (= (Associations 1) 
(setminus (union  (Associations 0) (singleton(mkTuple 21 71 14))) (singleton(mkTuple 23 69 14))))
(= (Associations 1) (Associations 0))))

(and (= (obligation13 0) 1)
(xor (= (Associations 1) 
(setminus (union  (Associations 0) (singleton(mkTuple 23 71 14))) (singleton(mkTuple 21 71 14))))
(= (Associations 1) (Associations 0))))

(= (Associations 1) (Associations 0))))
(assert (= (AssociationsForUA 1) (join (UA_U_Reachability 0) (Associations 1))))
(assert (= (AccessRights 1) (join (AssociationsForUA 1) (transpose (AT_Reachability 0)))))


;--------------------------------------------------------------------------------------------------------------------
;STEP2
(assert 
(xor 
(= (obligation1 1) 0) 
(and (member (mkTuple 50 67 14) (AccessRights 1)) (= (obligation1 1) 1))
)
)				
(assert 
(xor 
(= (obligation2 1) 0) 
(and (member (mkTuple 20 66 14) (AccessRights 1)) (= (obligation2 1) 1))
)
)				
(assert 
(xor 
(= (obligation3 1) 0) 
(and (member (mkTuple 26 66 14) (AccessRights 1)) (= (obligation3 1) 1))
)
)				
(assert 
(xor 
(= (obligation4 1) 0) 
(and (member (mkTuple 5 66 14) (AccessRights 1)) (= (obligation4 1) 1))
)
)				
(assert 
(xor 
(= (obligation5 1) 0) 
(and (member (mkTuple 6 67 14) (AccessRights 1)) (= (obligation5 1) 1))
)
)				
(assert 
(xor 
(= (obligation6 1) 0) 
(and (member (mkTuple 7 68 14) (AccessRights 1)) (= (obligation6 1) 1))
)
)				
(assert 
(xor 
(= (obligation7 1) 0) 
(and (member (mkTuple 1 66 14) (AccessRights 1)) (= (obligation7 1) 1))
)
)				
(assert 
(xor 
(= (obligation8 1) 0) 
(and (member (mkTuple 40 66 14) (AccessRights 1)) (= (obligation8 1) 1))
)
)				
(assert 
(xor 
(= (obligation9 1) 0) 
(and (member (mkTuple 4 66 14) (AccessRights 1)) (= (obligation9 1) 1))
)
)				
(assert 
(xor 
(= (obligation10 1) 0) 
(and (member (mkTuple 21 67 14) (AccessRights 1)) (= (obligation10 1) 1))
)
)				
(assert 
(xor 
(= (obligation11 1) 0) 
(and (member (mkTuple 23 68 14) (AccessRights 1)) (= (obligation11 1) 1))
)
)				
(assert 
(xor 
(= (obligation12 1) 0) 
(and (member (mkTuple 23 69 14) (AccessRights 1)) (= (obligation12 1) 1))
)
)				
(assert 
(xor 
(= (obligation13 1) 0) 
(and (member (mkTuple 21 71 14) (AccessRights 1)) (= (obligation13 1) 1))
)
)				


(assert (or 
(and (= (obligation1 1) 1)
(xor (= (Associations 2) 
(setminus (union  (Associations 1) (singleton(mkTuple 20 66 14))) (singleton(mkTuple 50 66 14))))
(= (Associations 2) (Associations 1))))

(and (= (obligation2 1) 1)
(xor (= (Associations 2) 
(setminus (union  (Associations 1) (singleton(mkTuple 26 66 14))) (singleton(mkTuple 20 66 14))))
(= (Associations 2) (Associations 1))))

(and (= (obligation3 1) 1)
(xor (= (Associations 2) 
(setminus (union  (Associations 1) (singleton(mkTuple 5 66 14))) (singleton(mkTuple 26 66 14))))
(= (Associations 2) (Associations 1))))

(and (= (obligation4 1) 1)
(xor (= (Associations 2) 
(setminus (union  (Associations 1) (singleton(mkTuple 6 67 14))) (singleton(mkTuple 5 66 14))))
(= (Associations 2) (Associations 1))))

(and (= (obligation5 1) 1)
(xor (= (Associations 2) 
(setminus (union  (Associations 1) (singleton(mkTuple 7 68 14))) (singleton(mkTuple 6 67 14))))
(= (Associations 2) (Associations 1))))

(and (= (obligation6 1) 1)
(xor (= (Associations 2) 
(setminus (union  (Associations 1) (singleton(mkTuple 1 66 14))) (singleton(mkTuple 7 68 14))))
(= (Associations 2) (Associations 1))))

(and (= (obligation7 1) 1)
(xor (= (Associations 2) 
(setminus (union  (Associations 1) (singleton(mkTuple 40 66 14))) (singleton(mkTuple 1 66 14))))
(= (Associations 2) (Associations 1))))

(and (= (obligation8 1) 1)
(xor (= (Associations 2) 
(setminus (union  (Associations 1) (singleton(mkTuple 4 66 14))) (singleton(mkTuple 40 66 14))))
(= (Associations 2) (Associations 1))))

(and (= (obligation9 1) 1)
(xor (= (Associations 2) 
(setminus (union  (Associations 1) (singleton(mkTuple 21 67 14))) (singleton(mkTuple 4 66 14))))
(= (Associations 2) (Associations 1))))

(and (= (obligation10 1) 1)
(xor (= (Associations 2) 
(setminus (union  (Associations 1) (singleton(mkTuple 23 68 14))) (singleton(mkTuple 21 66 14))))
(= (Associations 2) (Associations 1))))

(and (= (obligation11 1) 1)
(xor (= (Associations 2) 
(setminus (union  (Associations 1) (singleton(mkTuple 23 69 14))) (singleton(mkTuple 23 68 14))))
(= (Associations 2) (Associations 1))))

(and (= (obligation12 1) 1)
(xor (= (Associations 2) 
(setminus (union  (Associations 1) (singleton(mkTuple 21 71 14))) (singleton(mkTuple 23 69 14))))
(= (Associations 2) (Associations 1))))

(and (= (obligation13 1) 1)
(xor (= (Associations 2) 
(setminus (union  (Associations 1) (singleton(mkTuple 23 71 14))) (singleton(mkTuple 21 71 14))))
(= (Associations 2) (Associations 1))))

(= (Associations 2) (Associations 1))))
(assert (= (AssociationsForUA 2) (join (UA_U_Reachability 0) (Associations 2))))
(assert (= (AccessRights 2) (join (AssociationsForUA 2) (transpose (AT_Reachability 0)))))


;--------------------------------------------------------------------------------------------------------------------
;STEP3
(assert 
(xor 
(= (obligation1 2) 0) 
(and (member (mkTuple 50 67 14) (AccessRights 2)) (= (obligation1 2) 1))
)
)				
(assert 
(xor 
(= (obligation2 2) 0) 
(and (member (mkTuple 20 66 14) (AccessRights 2)) (= (obligation2 2) 1))
)
)				
(assert 
(xor 
(= (obligation3 2) 0) 
(and (member (mkTuple 26 66 14) (AccessRights 2)) (= (obligation3 2) 1))
)
)				
(assert 
(xor 
(= (obligation4 2) 0) 
(and (member (mkTuple 5 66 14) (AccessRights 2)) (= (obligation4 2) 1))
)
)				
(assert 
(xor 
(= (obligation5 2) 0) 
(and (member (mkTuple 6 67 14) (AccessRights 2)) (= (obligation5 2) 1))
)
)				
(assert 
(xor 
(= (obligation6 2) 0) 
(and (member (mkTuple 7 68 14) (AccessRights 2)) (= (obligation6 2) 1))
)
)				
(assert 
(xor 
(= (obligation7 2) 0) 
(and (member (mkTuple 1 66 14) (AccessRights 2)) (= (obligation7 2) 1))
)
)				
(assert 
(xor 
(= (obligation8 2) 0) 
(and (member (mkTuple 40 66 14) (AccessRights 2)) (= (obligation8 2) 1))
)
)				
(assert 
(xor 
(= (obligation9 2) 0) 
(and (member (mkTuple 4 66 14) (AccessRights 2)) (= (obligation9 2) 1))
)
)				
(assert 
(xor 
(= (obligation10 2) 0) 
(and (member (mkTuple 21 67 14) (AccessRights 2)) (= (obligation10 2) 1))
)
)				
(assert 
(xor 
(= (obligation11 2) 0) 
(and (member (mkTuple 23 68 14) (AccessRights 2)) (= (obligation11 2) 1))
)
)				
(assert 
(xor 
(= (obligation12 2) 0) 
(and (member (mkTuple 23 69 14) (AccessRights 2)) (= (obligation12 2) 1))
)
)				
(assert 
(xor 
(= (obligation13 2) 0) 
(and (member (mkTuple 21 71 14) (AccessRights 2)) (= (obligation13 2) 1))
)
)				


(assert (or 
(and (= (obligation1 2) 1)
(xor (= (Associations 3) 
(setminus (union  (Associations 2) (singleton(mkTuple 20 66 14))) (singleton(mkTuple 50 66 14))))
(= (Associations 3) (Associations 2))))

(and (= (obligation2 2) 1)
(xor (= (Associations 3) 
(setminus (union  (Associations 2) (singleton(mkTuple 26 66 14))) (singleton(mkTuple 20 66 14))))
(= (Associations 3) (Associations 2))))

(and (= (obligation3 2) 1)
(xor (= (Associations 3) 
(setminus (union  (Associations 2) (singleton(mkTuple 5 66 14))) (singleton(mkTuple 26 66 14))))
(= (Associations 3) (Associations 2))))

(and (= (obligation4 2) 1)
(xor (= (Associations 3) 
(setminus (union  (Associations 2) (singleton(mkTuple 6 67 14))) (singleton(mkTuple 5 66 14))))
(= (Associations 3) (Associations 2))))

(and (= (obligation5 2) 1)
(xor (= (Associations 3) 
(setminus (union  (Associations 2) (singleton(mkTuple 7 68 14))) (singleton(mkTuple 6 67 14))))
(= (Associations 3) (Associations 2))))

(and (= (obligation6 2) 1)
(xor (= (Associations 3) 
(setminus (union  (Associations 2) (singleton(mkTuple 1 66 14))) (singleton(mkTuple 7 68 14))))
(= (Associations 3) (Associations 2))))

(and (= (obligation7 2) 1)
(xor (= (Associations 3) 
(setminus (union  (Associations 2) (singleton(mkTuple 40 66 14))) (singleton(mkTuple 1 66 14))))
(= (Associations 3) (Associations 2))))

(and (= (obligation8 2) 1)
(xor (= (Associations 3) 
(setminus (union  (Associations 2) (singleton(mkTuple 4 66 14))) (singleton(mkTuple 40 66 14))))
(= (Associations 3) (Associations 2))))

(and (= (obligation9 2) 1)
(xor (= (Associations 3) 
(setminus (union  (Associations 2) (singleton(mkTuple 21 67 14))) (singleton(mkTuple 4 66 14))))
(= (Associations 3) (Associations 2))))

(and (= (obligation10 2) 1)
(xor (= (Associations 3) 
(setminus (union  (Associations 2) (singleton(mkTuple 23 68 14))) (singleton(mkTuple 21 66 14))))
(= (Associations 3) (Associations 2))))

(and (= (obligation11 2) 1)
(xor (= (Associations 3) 
(setminus (union  (Associations 2) (singleton(mkTuple 23 69 14))) (singleton(mkTuple 23 68 14))))
(= (Associations 3) (Associations 2))))

(and (= (obligation12 2) 1)
(xor (= (Associations 3) 
(setminus (union  (Associations 2) (singleton(mkTuple 21 71 14))) (singleton(mkTuple 23 69 14))))
(= (Associations 3) (Associations 2))))

(and (= (obligation13 2) 1)
(xor (= (Associations 3) 
(setminus (union  (Associations 2) (singleton(mkTuple 23 71 14))) (singleton(mkTuple 21 71 14))))
(= (Associations 3) (Associations 2))))

(= (Associations 3) (Associations 2))))
(assert (= (AssociationsForUA 3) (join (UA_U_Reachability 0) (Associations 3))))
(assert (= (AccessRights 3) (join (AssociationsForUA 3) (transpose (AT_Reachability 0)))))


;--------------------------------------------------------------------------------------------------------------------
;STEP4
(assert 
(xor 
(= (obligation1 3) 0) 
(and (member (mkTuple 50 67 14) (AccessRights 3)) (= (obligation1 3) 1))
)
)				
(assert 
(xor 
(= (obligation2 3) 0) 
(and (member (mkTuple 20 66 14) (AccessRights 3)) (= (obligation2 3) 1))
)
)				
(assert 
(xor 
(= (obligation3 3) 0) 
(and (member (mkTuple 26 66 14) (AccessRights 3)) (= (obligation3 3) 1))
)
)				
(assert 
(xor 
(= (obligation4 3) 0) 
(and (member (mkTuple 5 66 14) (AccessRights 3)) (= (obligation4 3) 1))
)
)				
(assert 
(xor 
(= (obligation5 3) 0) 
(and (member (mkTuple 6 67 14) (AccessRights 3)) (= (obligation5 3) 1))
)
)				
(assert 
(xor 
(= (obligation6 3) 0) 
(and (member (mkTuple 7 68 14) (AccessRights 3)) (= (obligation6 3) 1))
)
)				
(assert 
(xor 
(= (obligation7 3) 0) 
(and (member (mkTuple 1 66 14) (AccessRights 3)) (= (obligation7 3) 1))
)
)				
(assert 
(xor 
(= (obligation8 3) 0) 
(and (member (mkTuple 40 66 14) (AccessRights 3)) (= (obligation8 3) 1))
)
)				
(assert 
(xor 
(= (obligation9 3) 0) 
(and (member (mkTuple 4 66 14) (AccessRights 3)) (= (obligation9 3) 1))
)
)				
(assert 
(xor 
(= (obligation10 3) 0) 
(and (member (mkTuple 21 67 14) (AccessRights 3)) (= (obligation10 3) 1))
)
)				
(assert 
(xor 
(= (obligation11 3) 0) 
(and (member (mkTuple 23 68 14) (AccessRights 3)) (= (obligation11 3) 1))
)
)				
(assert 
(xor 
(= (obligation12 3) 0) 
(and (member (mkTuple 23 69 14) (AccessRights 3)) (= (obligation12 3) 1))
)
)				
(assert 
(xor 
(= (obligation13 3) 0) 
(and (member (mkTuple 21 71 14) (AccessRights 3)) (= (obligation13 3) 1))
)
)				


(assert (or 
(and (= (obligation1 3) 1)
(xor (= (Associations 4) 
(setminus (union  (Associations 3) (singleton(mkTuple 20 66 14))) (singleton(mkTuple 50 66 14))))
(= (Associations 4) (Associations 3))))

(and (= (obligation2 3) 1)
(xor (= (Associations 4) 
(setminus (union  (Associations 3) (singleton(mkTuple 26 66 14))) (singleton(mkTuple 20 66 14))))
(= (Associations 4) (Associations 3))))

(and (= (obligation3 3) 1)
(xor (= (Associations 4) 
(setminus (union  (Associations 3) (singleton(mkTuple 5 66 14))) (singleton(mkTuple 26 66 14))))
(= (Associations 4) (Associations 3))))

(and (= (obligation4 3) 1)
(xor (= (Associations 4) 
(setminus (union  (Associations 3) (singleton(mkTuple 6 67 14))) (singleton(mkTuple 5 66 14))))
(= (Associations 4) (Associations 3))))

(and (= (obligation5 3) 1)
(xor (= (Associations 4) 
(setminus (union  (Associations 3) (singleton(mkTuple 7 68 14))) (singleton(mkTuple 6 67 14))))
(= (Associations 4) (Associations 3))))

(and (= (obligation6 3) 1)
(xor (= (Associations 4) 
(setminus (union  (Associations 3) (singleton(mkTuple 1 66 14))) (singleton(mkTuple 7 68 14))))
(= (Associations 4) (Associations 3))))

(and (= (obligation7 3) 1)
(xor (= (Associations 4) 
(setminus (union  (Associations 3) (singleton(mkTuple 40 66 14))) (singleton(mkTuple 1 66 14))))
(= (Associations 4) (Associations 3))))

(and (= (obligation8 3) 1)
(xor (= (Associations 4) 
(setminus (union  (Associations 3) (singleton(mkTuple 4 66 14))) (singleton(mkTuple 40 66 14))))
(= (Associations 4) (Associations 3))))

(and (= (obligation9 3) 1)
(xor (= (Associations 4) 
(setminus (union  (Associations 3) (singleton(mkTuple 21 67 14))) (singleton(mkTuple 4 66 14))))
(= (Associations 4) (Associations 3))))

(and (= (obligation10 3) 1)
(xor (= (Associations 4) 
(setminus (union  (Associations 3) (singleton(mkTuple 23 68 14))) (singleton(mkTuple 21 66 14))))
(= (Associations 4) (Associations 3))))

(and (= (obligation11 3) 1)
(xor (= (Associations 4) 
(setminus (union  (Associations 3) (singleton(mkTuple 23 69 14))) (singleton(mkTuple 23 68 14))))
(= (Associations 4) (Associations 3))))

(and (= (obligation12 3) 1)
(xor (= (Associations 4) 
(setminus (union  (Associations 3) (singleton(mkTuple 21 71 14))) (singleton(mkTuple 23 69 14))))
(= (Associations 4) (Associations 3))))

(and (= (obligation13 3) 1)
(xor (= (Associations 4) 
(setminus (union  (Associations 3) (singleton(mkTuple 23 71 14))) (singleton(mkTuple 21 71 14))))
(= (Associations 4) (Associations 3))))

(= (Associations 4) (Associations 3))))
(assert (= (AssociationsForUA 4) (join (UA_U_Reachability 0) (Associations 4))))
(assert (= (AccessRights 4) (join (AssociationsForUA 4) (transpose (AT_Reachability 0)))))


;--------------------------------------------------------------------------------------------------------------------
;STEP5
(assert 
(xor 
(= (obligation1 4) 0) 
(and (member (mkTuple 50 67 14) (AccessRights 4)) (= (obligation1 4) 1))
)
)				
(assert 
(xor 
(= (obligation2 4) 0) 
(and (member (mkTuple 20 66 14) (AccessRights 4)) (= (obligation2 4) 1))
)
)				
(assert 
(xor 
(= (obligation3 4) 0) 
(and (member (mkTuple 26 66 14) (AccessRights 4)) (= (obligation3 4) 1))
)
)				
(assert 
(xor 
(= (obligation4 4) 0) 
(and (member (mkTuple 5 66 14) (AccessRights 4)) (= (obligation4 4) 1))
)
)				
(assert 
(xor 
(= (obligation5 4) 0) 
(and (member (mkTuple 6 67 14) (AccessRights 4)) (= (obligation5 4) 1))
)
)				
(assert 
(xor 
(= (obligation6 4) 0) 
(and (member (mkTuple 7 68 14) (AccessRights 4)) (= (obligation6 4) 1))
)
)				
(assert 
(xor 
(= (obligation7 4) 0) 
(and (member (mkTuple 1 66 14) (AccessRights 4)) (= (obligation7 4) 1))
)
)				
(assert 
(xor 
(= (obligation8 4) 0) 
(and (member (mkTuple 40 66 14) (AccessRights 4)) (= (obligation8 4) 1))
)
)				
(assert 
(xor 
(= (obligation9 4) 0) 
(and (member (mkTuple 4 66 14) (AccessRights 4)) (= (obligation9 4) 1))
)
)				
(assert 
(xor 
(= (obligation10 4) 0) 
(and (member (mkTuple 21 67 14) (AccessRights 4)) (= (obligation10 4) 1))
)
)				
(assert 
(xor 
(= (obligation11 4) 0) 
(and (member (mkTuple 23 68 14) (AccessRights 4)) (= (obligation11 4) 1))
)
)				
(assert 
(xor 
(= (obligation12 4) 0) 
(and (member (mkTuple 23 69 14) (AccessRights 4)) (= (obligation12 4) 1))
)
)				
(assert 
(xor 
(= (obligation13 4) 0) 
(and (member (mkTuple 21 71 14) (AccessRights 4)) (= (obligation13 4) 1))
)
)				


(assert (or 
(and (= (obligation1 4) 1)
(xor (= (Associations 5) 
(setminus (union  (Associations 4) (singleton(mkTuple 20 66 14))) (singleton(mkTuple 50 66 14))))
(= (Associations 5) (Associations 4))))

(and (= (obligation2 4) 1)
(xor (= (Associations 5) 
(setminus (union  (Associations 4) (singleton(mkTuple 26 66 14))) (singleton(mkTuple 20 66 14))))
(= (Associations 5) (Associations 4))))

(and (= (obligation3 4) 1)
(xor (= (Associations 5) 
(setminus (union  (Associations 4) (singleton(mkTuple 5 66 14))) (singleton(mkTuple 26 66 14))))
(= (Associations 5) (Associations 4))))

(and (= (obligation4 4) 1)
(xor (= (Associations 5) 
(setminus (union  (Associations 4) (singleton(mkTuple 6 67 14))) (singleton(mkTuple 5 66 14))))
(= (Associations 5) (Associations 4))))

(and (= (obligation5 4) 1)
(xor (= (Associations 5) 
(setminus (union  (Associations 4) (singleton(mkTuple 7 68 14))) (singleton(mkTuple 6 67 14))))
(= (Associations 5) (Associations 4))))

(and (= (obligation6 4) 1)
(xor (= (Associations 5) 
(setminus (union  (Associations 4) (singleton(mkTuple 1 66 14))) (singleton(mkTuple 7 68 14))))
(= (Associations 5) (Associations 4))))

(and (= (obligation7 4) 1)
(xor (= (Associations 5) 
(setminus (union  (Associations 4) (singleton(mkTuple 40 66 14))) (singleton(mkTuple 1 66 14))))
(= (Associations 5) (Associations 4))))

(and (= (obligation8 4) 1)
(xor (= (Associations 5) 
(setminus (union  (Associations 4) (singleton(mkTuple 4 66 14))) (singleton(mkTuple 40 66 14))))
(= (Associations 5) (Associations 4))))

(and (= (obligation9 4) 1)
(xor (= (Associations 5) 
(setminus (union  (Associations 4) (singleton(mkTuple 21 67 14))) (singleton(mkTuple 4 66 14))))
(= (Associations 5) (Associations 4))))

(and (= (obligation10 4) 1)
(xor (= (Associations 5) 
(setminus (union  (Associations 4) (singleton(mkTuple 23 68 14))) (singleton(mkTuple 21 66 14))))
(= (Associations 5) (Associations 4))))

(and (= (obligation11 4) 1)
(xor (= (Associations 5) 
(setminus (union  (Associations 4) (singleton(mkTuple 23 69 14))) (singleton(mkTuple 23 68 14))))
(= (Associations 5) (Associations 4))))

(and (= (obligation12 4) 1)
(xor (= (Associations 5) 
(setminus (union  (Associations 4) (singleton(mkTuple 21 71 14))) (singleton(mkTuple 23 69 14))))
(= (Associations 5) (Associations 4))))

(and (= (obligation13 4) 1)
(xor (= (Associations 5) 
(setminus (union  (Associations 4) (singleton(mkTuple 23 71 14))) (singleton(mkTuple 21 71 14))))
(= (Associations 5) (Associations 4))))

(= (Associations 5) (Associations 4))))
(assert (= (AssociationsForUA 5) (join (UA_U_Reachability 0) (Associations 5))))
(assert (= (AccessRights 5) (join (AssociationsForUA 5) (transpose (AT_Reachability 0)))))


;PROPERTY
(assert (= (obligation7 4) 1))


(check-sat)
(get-value (obligation1))
(get-value (obligation2))
(get-value (obligation3))
(get-value (obligation4))
(get-value (obligation5))
(get-value (obligation6))
(get-value (obligation7))
(get-value (obligation8))
(get-value (obligation9))
(get-value (obligation10))
(get-value (obligation11))
(get-value (obligation12))
(get-value (obligation13))
